
Gurobi 8.1.1 (win64) logging started 11/24/19 12:28:30

Changed value of parameter LogFile to logs/drand/feas/drand-05-110-0.log
   Prev: gurobi.log  Default: 
Changed value of parameter LogToConsole to 0
   Prev: 1  Min: 0  Max: 1  Default: 1
Changed value of parameter TimeLimit to 3600.0
   Prev: 1e+100  Min: 0.0  Max: 1e+100  Default: 1e+100
Optimize a model with 185 rows, 81 columns and 630 nonzeros
Variable types: 0 continuous, 81 integer (75 binary)
Coefficient statistics:
  Matrix range     [1e+00, 3e+02]
  Objective range  [1e+00, 1e+00]
  Bounds range     [1e+00, 1e+00]
  RHS range        [1e+00, 4e+02]
Presolve time: 0.00s
Presolved: 185 rows, 81 columns, 630 nonzeros
Variable types: 0 continuous, 81 integer (75 binary)

Root relaxation: objective 2.840000e+01, 98 iterations, 0.00 seconds

    Nodes    |    Current Node    |     Objective Bounds      |     Work
 Expl Unexpl |  Obj  Depth IntInf | Incumbent    BestBd   Gap | It/Node Time

     0     0   28.40000    0   44          -   28.40000      -     -    0s
H    0     0                     288.0000000   28.40000  90.1%     -    0s
H    0     0                     228.0000000   28.40000  87.5%     -    0s
     0     0   44.37898    0   28  228.00000   44.37898  80.5%     -    0s
     0     0   44.53364    0   27  228.00000   44.53364  80.5%     -    0s
     0     0   53.95150    0   32  228.00000   53.95150  76.3%     -    0s
     0     0   54.19434    0   34  228.00000   54.19434  76.2%     -    0s
     0     0   54.99261    0   27  228.00000   54.99261  75.9%     -    0s
     0     0   54.99261    0   28  228.00000   54.99261  75.9%     -    0s
     0     0   57.23137    0   33  228.00000   57.23137  74.9%     -    0s
H    0     0                     202.0000000   57.23137  71.7%     -    0s
     0     0   57.56878    0   34  202.00000   57.56878  71.5%     -    0s
     0     0   58.11953    0   29  202.00000   58.11953  71.2%     -    0s
     0     0   58.31264    0   30  202.00000   58.31264  71.1%     -    0s
     0     0   58.31264    0   30  202.00000   58.31264  71.1%     -    0s
     0     0   58.63523    0   31  202.00000   58.63523  71.0%     -    0s
     0     0   58.63801    0   31  202.00000   58.63801  71.0%     -    0s
     0     0   58.95719    0   31  202.00000   58.95719  70.8%     -    0s
H    0     0                     174.0000000   58.95719  66.1%     -    0s
     0     0   59.26293    0   33  174.00000   59.26293  65.9%     -    0s
     0     0   59.26293    0   33  174.00000   59.26293  65.9%     -    0s
     0     0   59.35823    0   32  174.00000   59.35823  65.9%     -    0s
     0     0   59.35823    0   33  174.00000   59.35823  65.9%     -    0s
     0     0   59.35823    0   33  174.00000   59.35823  65.9%     -    0s
     0     0   59.35823    0   31  174.00000   59.35823  65.9%     -    0s
H    0     0                     172.0000000   59.35823  65.5%     -    0s
     0     2   59.35823    0   26  172.00000   59.35823  65.5%     -    0s

Cutting planes:
  Gomory: 10
  Implied bound: 1
  MIR: 20

Explored 191 nodes (1889 simplex iterations) in 0.13 seconds
Thread count was 4 (of 4 available processors)

Solution count 5: 172 174 202 ... 288

Optimal solution found (tolerance 1.00e-04)
Best objective 1.720000000000e+02, best bound 1.720000000000e+02, gap 0.0000%

Gurobi 8.1.1 (win64) logging started 11/24/19 12:28:30

Changed value of parameter LogFile to logs/drand/feas/drand-05-110-0.log
   Prev: gurobi.log  Default: 
Changed value of parameter LogToConsole to 0
   Prev: 1  Min: 0  Max: 1  Default: 1
Changed value of parameter TimeLimit to 3600.0
   Prev: 1e+100  Min: 0.0  Max: 1e+100  Default: 1e+100
Optimize a model with 125 rows, 55 columns and 420 nonzeros
Variable types: 0 continuous, 55 integer (50 binary)
Coefficient statistics:
  Matrix range     [1e+00, 3e+02]
  Objective range  [1e+00, 1e+00]
  Bounds range     [1e+00, 1e+00]
  RHS range        [1e+00, 4e+02]
Presolve time: 0.00s
Presolved: 125 rows, 55 columns, 420 nonzeros
Variable types: 0 continuous, 55 integer (50 binary)

Root relaxation: objective 3.050000e+01, 61 iterations, 0.00 seconds

    Nodes    |    Current Node    |     Objective Bounds      |     Work
 Expl Unexpl |  Obj  Depth IntInf | Incumbent    BestBd   Gap | It/Node Time

     0     0   30.50000    0   37          -   30.50000      -     -    0s
     0     0   52.78572    0   23          -   52.78572      -     -    0s
     0     0   52.78572    0   22          -   52.78572      -     -    0s
     0     0   59.44893    0   21          -   59.44893      -     -    0s
     0     0   61.87765    0   21          -   61.87765      -     -    0s
     0     0   64.89574    0   24          -   64.89574      -     -    0s
     0     0   64.89574    0   23          -   64.89574      -     -    0s
     0     0   69.91599    0   18          -   69.91599      -     -    0s
     0     0   75.75949    0   22          -   75.75949      -     -    0s
     0     0   75.78291    0   24          -   75.78291      -     -    0s
     0     0   76.17858    0   24          -   76.17858      -     -    0s
     0     0   76.17858    0   26          -   76.17858      -     -    0s
     0     0   79.04273    0   18          -   79.04273      -     -    0s
     0     0   79.04273    0   18          -   79.04273      -     -    0s
     0     0   79.04273    0   21          -   79.04273      -     -    0s
     0     0   79.04273    0   17          -   79.04273      -     -    0s
     0     2   79.04273    0   16          -   79.04273      -     -    0s

Cutting planes:
  Gomory: 13
  MIR: 10
  Inf proof: 1

Explored 4029 nodes (13356 simplex iterations) in 0.27 seconds
Thread count was 4 (of 4 available processors)

Solution count 0

Model is infeasible
Best objective -, best bound -, gap -
